#######################################
### Exact MIP solver for the HHCRSP ###
#######################################
-- Instance file: new-instances/HHCRSP_75_15_69_0.4_R_C.txt
-- Max threads: 4
-- Time limit: 999999 seconds
-- Use initial solution: No
Trivial flow violations prevented generating 17074 variables.
Model exported.
Version identifier: 20.1.0.0 | 2020-11-10 | 9bedb6d68
CPXPARAM_Threads                                 4
CPXPARAM_TimeLimit                               999999
Parallel mode: deterministic, using up to 4 threads for concurrent optimization:
 * Starting dual Simplex on 1 thread...
 * Starting Barrier on 3 threads...
Tried aggregator 1 time.
LP Presolve eliminated 3150 rows and 837 columns.
Reduced LP has 25554 rows, 24908 columns, and 226325 nonzeros.
Presolve time = 0.10 sec. (63.90 ticks)
Symmetry aggregator did 30875 additional substitutions.

Iteration log . . .
Iteration:     1   Dual objective     =             0.000000
Iteration:   338   Dual objective     =           168.000000

Dual crossover.
  Dual:  Fixing 175 variables.
      174 DMoves:  Infeasibility  8.65974450e-14  Objective  1.68004653e+02
        0 DMoves:  Infeasibility  4.07452290e-14  Objective  1.68004653e+02
  Dual:  Pushed 10, exchanged 165.
  Primal:  Fixing 96 variables.
       95 PMoves:  Infeasibility  3.16413562e-15  Objective  1.68004653e+02
        0 PMoves:  Infeasibility  3.16413562e-15  Objective  1.68004653e+02
  Primal:  Pushed 73, exchanged 23.

Dual simplex solved model.


Solution status from MIP model:
-- Processing time: 0.194 sec.
-- Memory used: 86.0439 MB
-- Best bound: inf
-- Obj value: 168.005
-- Gap: inf%
-- Total distance: 504.014
-- Total tardiness: 0
-- Largest tardiness: 0
